; ADD POP => POP POP
(set-option :produce-proofs true)
; 
(set-info :status unknown)
(declare-fun storage_t ((_ BitVec 256) (_ BitVec 256) Int (_ BitVec 256)) (_ BitVec 256))
(declare-fun storage_s ((_ BitVec 256) (_ BitVec 256) Int (_ BitVec 256)) (_ BitVec 256))
(declare-fun exc_halt_t (Int) Bool)
(declare-fun exc_halt_s (Int) Bool)
(declare-fun sc_t (Int) (_ BitVec 6))
(declare-fun stack_t ((_ BitVec 256) (_ BitVec 256) Int (_ BitVec 6)) (_ BitVec 256))
(declare-fun stack_s ((_ BitVec 256) (_ BitVec 256) Int (_ BitVec 6)) (_ BitVec 256))
(declare-fun sc_s (Int) (_ BitVec 6))
(declare-fun used_gas_t ((_ BitVec 256) (_ BitVec 256) Int) Int)
(declare-fun used_gas_s ((_ BitVec 256) (_ BitVec 256) Int) Int)
(assert
 (exists ((x_0 (_ BitVec 256)) (x_1 (_ BitVec 256)) )(let (($x7862 (forall ((w (_ BitVec 256)) )(let ((?x241 (storage_t x_0 x_1 2 w)))
 (let ((?x7190 (storage_s x_0 x_1 2 w)))
 (= ?x7190 ?x241))))
 ))
 (let (($x903 (exc_halt_t 2)))
 (let (($x247 (exc_halt_s 2)))
 (let (($x11171 (= $x247 $x903)))
 (let (($x5182 (forall ((n (_ BitVec 6)) )(let ((?x8845 (stack_t x_0 x_1 2 n)))
 (let ((?x10837 (stack_s x_0 x_1 2 n)))
 (let (($x2613 (= ?x10837 ?x8845)))
 (or $x2613 (bvsle (sc_t 2) n))))))
 ))
 (let ((?x4056 (sc_t 2)))
 (let ((?x218 (sc_s 2)))
 (let (($x8418 (= ?x218 ?x4056)))
 (let ((?x6978 (used_gas_t x_0 x_1 0)))
 (let ((?x2904 (used_gas_s x_0 x_1 0)))
 (let (($x4076 (= ?x2904 ?x6978)))
 (let (($x4981 (forall ((w (_ BitVec 256)) )(let ((?x6388 (storage_t x_0 x_1 0 w)))
 (let ((?x3392 (storage_s x_0 x_1 0 w)))
 (= ?x3392 ?x6388))))
 ))
 (let (($x56 (exc_halt_t 0)))
 (let (($x57 (exc_halt_s 0)))
 (let (($x58 (= $x57 $x56)))
 (let (($x9059 (forall ((n (_ BitVec 6)) )(let ((?x6252 (stack_t x_0 x_1 0 n)))
 (let ((?x2920 (stack_s x_0 x_1 0 n)))
 (let (($x7028 (= ?x2920 ?x6252)))
 (or (bvsle (sc_t 0) n) $x7028)))))
 ))
 (let ((?x63 (sc_t 0)))
 (let ((?x72 (sc_s 0)))
 (let (($x73 (= ?x72 ?x63)))
 (let (($x2625 (= $x903 (or (exc_halt_t 1) (not (bvsle (_ bv0 6) (bvadd (_ bv63 6) (sc_t 1))))))))
 (let (($x6540 (forall ((w (_ BitVec 256)) )(let ((?x8439 (storage_t x_0 x_1 1 w)))
 (let ((?x241 (storage_t x_0 x_1 2 w)))
 (= ?x241 ?x8439))))
 ))
 (let (($x10816 (forall ((n (_ BitVec 6)) )(or (bvsle (bvadd (_ bv63 6) (sc_t 1)) n) (= (stack_t x_0 x_1 2 n) (stack_t x_0 x_1 1 n))))
 ))
 (let (($x726 (= (used_gas_t x_0 x_1 2) (+ 2 (used_gas_t x_0 x_1 1)))))
 (let (($x3153 (forall ((w (_ BitVec 256)) )(let ((?x6388 (storage_t x_0 x_1 0 w)))
 (let ((?x8439 (storage_t x_0 x_1 1 w)))
 (= ?x8439 ?x6388))))
 ))
 (let (($x7095 (forall ((n (_ BitVec 6)) )(or (= (stack_t x_0 x_1 1 n) (stack_t x_0 x_1 0 n)) (bvsle (bvadd (_ bv63 6) (sc_t 0)) n)))
 ))
 (let (($x9112 (= $x247 (or (exc_halt_s 1) (not (bvsle (_ bv0 6) (bvadd (_ bv63 6) (sc_s 1))))))))
 (let (($x2783 (forall ((w (_ BitVec 256)) )(let ((?x4070 (storage_s x_0 x_1 1 w)))
 (let ((?x7190 (storage_s x_0 x_1 2 w)))
 (= ?x7190 ?x4070))))
 ))
 (let (($x6805 (forall ((n (_ BitVec 6)) )(or (bvsle (bvadd (_ bv63 6) (sc_s 1)) n) (= (stack_s x_0 x_1 2 n) (stack_s x_0 x_1 1 n))))
 ))
 (let (($x2365 (= (used_gas_s x_0 x_1 2) (+ 2 (used_gas_s x_0 x_1 1)))))
 (let (($x5185 (forall ((w (_ BitVec 256)) )(let ((?x3392 (storage_s x_0 x_1 0 w)))
 (let ((?x4070 (storage_s x_0 x_1 1 w)))
 (= ?x4070 ?x3392))))
 ))
 (let (($x70 (forall ((n (_ BitVec 6)) )(or (bvsle (bvadd (_ bv62 6) (sc_s 0)) n) (= (stack_s x_0 x_1 1 n) (stack_s x_0 x_1 0 n))))
 ))
 (let ((?x8893 (bvadd (stack_s x_0 x_1 0 (bvadd (_ bv63 6) ?x72)) (stack_s x_0 x_1 0 (bvadd (_ bv62 6) ?x72)))))
 (let (($x2277 (forall ((w (_ BitVec 256)) )(let ((?x3392 (storage_s x_0 x_1 0 w)))
 (= ?x3392 (_ bv0 256))))
 ))
 (let (($x3370 (= ?x2904 0)))
 (let (($x5117 (= (stack_s x_0 x_1 0 (_ bv1 6)) x_1)))
 (let (($x2694 (= (stack_s x_0 x_1 0 (_ bv0 6)) x_0)))
 (let (($x3159 (= ?x72 (_ bv2 6))))
 (and $x3159 $x2694 $x5117 (not $x57) $x3370 $x2277 (= (stack_s x_0 x_1 1 (bvadd (_ bv63 6) (sc_s 1))) ?x8893) (= (used_gas_s x_0 x_1 1) (+ 3 ?x2904)) (= (sc_s 1) (bvadd (_ bv63 6) ?x72)) $x70 $x5185 (= (exc_halt_s 1) (or $x57 (not (bvsle (_ bv0 6) (bvadd (_ bv62 6) ?x72))))) $x2365 (= ?x218 (bvadd (_ bv63 6) (sc_s 1))) $x6805 $x2783 $x9112 (= (used_gas_t x_0 x_1 1) (+ 2 ?x6978)) (= (sc_t 1) (bvadd (_ bv63 6) ?x63)) $x7095 $x3153 (= (exc_halt_t 1) (or $x56 (not (bvsle (_ bv0 6) (bvadd (_ bv63 6) ?x63))))) $x726 (= ?x4056 (bvadd (_ bv63 6) (sc_t 1))) $x10816 $x6540 $x2625 $x73 $x9059 $x58 $x4981 $x4076 (not (and $x8418 $x5182 $x11171 $x7862)))))))))))))))))))))))))))))))))))))))))
 )
(check-sat)
(get-proof)
